10J3M/DAT/10J3MNTX-19.dat
10 3
24.8174 4.9817
21.8719 4.6767
26.6686 5.1642
20.6183 4.5407
26.675 5.1648
30.1479 5.4907
17.3444 4.1647
25.1092 5.0109
15.2582 3.9062
28.8719 5.3733
12.1185