10J3M/SOL/10J3MNTX-19.sol
solution status: optimal solution found
objective value:                     62.1338035170789
x#1#1                              0.0705763189705256 	(obj:0)
x#1#3                               0.929423681029474 	(obj:0)
x#2#2                               0.584868317464695 	(obj:0)
x#2#3                               0.415131682535305 	(obj:0)
x#3#1                                               1 	(obj:0)
x#4#3                                0.10861761402427 	(obj:0)
x#5#2                                               1 	(obj:0)
x#6#1                              0.0795811629659959 	(obj:0)
x#6#3                               0.920418837034004 	(obj:0)
x#8#1                                               1 	(obj:0)
x#10#1                              0.214924471048916 	(obj:0)
x#10#2                              0.785075528951084 	(obj:0)
z                                    62.1338035170789 	(obj:1)
